(declare-const maxId_init Int)
(declare-const tmp_init Int)
(declare-const _tmp__init Int)
(declare-const id_init Int)
(declare-const c_0 Int)
(declare-const c_1 Int)
(declare-const c_2 Int)
(declare-const c_3 Int)
(declare-const c_4 Int)
(declare-const c_5 Int)
(declare-const c_6 Int)
(declare-const c_7 Int)
(declare-const c_8 Int)
(declare-const c_9 Int)
(declare-const c_10 Int)
(declare-const c_11 Int)
(declare-const c_12 Int)
(declare-const c_13 Int)
(declare-const c_14 Int)
(declare-const c_15 Int)
(declare-const c_16 Int)
(declare-const c_17 Int)
(declare-const c_18 Int)
(declare-const c_19 Int)
(declare-const c_20 Int)
(declare-const c_21 Int)
(declare-const c_22 Int)
(declare-const c_23 Int)
(declare-const c_24 Int)
(declare-const c_25 Int)
(declare-const c_26 Int)
(declare-const c_27 Int)
(declare-const c_28 Int)
(assert (< c_4 0))
(assert (and (>= (+ (* 1 c_5 ) (* (- 1) maxId_init ) ) 0) (>= (+ (* (- 1) c_5 ) (* 1 maxId_init ) ) 0) (>= (+ (* 1 c_6 ) (* (- 1) tmp_init ) ) 0) (>= (+ (* (- 1) c_6 ) (* 1 tmp_init ) ) 0) (>= (+ (* (- 1) _tmp__init ) (* 1 c_7 ) ) 0) (>= (+ (* 1 _tmp__init ) (* (- 1) c_7 ) ) 0) (>= (+ (* 1 c_8 ) (* (- 1) id_init ) ) 0) (>= (+ (* (- 1) c_8 ) (* 1 id_init ) ) 0) ))
(assert (forall ((maxId Real) (tmp Real) (_tmp_ Real) (id Real) (_r_0 Real) ) (=> (and (>= (+ (* (- 1) 1) (* (- 1) _tmp_ c_10 ) (* (- 1) c_11 id ) (* (- 1) c_12 maxId ) (* (- 1) c_13 ) (* (- 1) c_13 id ) (* (- 1) c_9 ) ) 0) (>= (* 1 id ) 0) (>= (+ (* (- 1) 1) (* (- 1) id ) (* 1 maxId ) ) 0) (>= (+ (* 1 c_5 ) (* (- 1) maxId ) ) 0) (>= (+ (* (- 1) c_5 ) (* 1 maxId ) ) 0) (>= (+ (* 1 c_6 ) (* (- 1) tmp ) ) 0) (>= (+ (* (- 1) c_6 ) (* 1 tmp ) ) 0) (>= (+ (* (- 1) _tmp_ ) (* 1 c_7 ) ) 0) (>= (+ (* 1 _tmp_ ) (* (- 1) c_7 ) ) 0) (>= (+ (* 1 c_8 ) (* (- 1) id ) ) 0) (>= (+ (* (- 1) c_8 ) (* 1 id ) ) 0) ) (>= (+ (* 1 _tmp_ c_20 ) (* 1 c_19 ) (* 1 c_21 id ) (* 1 c_22 maxId ) (* 1 c_23 ) (* 1 c_23 id ) ) 0) )))
(assert (forall ((maxId Real) (tmp Real) (_tmp_ Real) (id Real) (_r_0 Real) ) (=> (and (>= (+ (* (- 1) 1) (* (- 1) _tmp_ c_10 ) (* (- 1) c_11 id ) (* (- 1) c_12 maxId ) (* (- 1) c_13 ) (* (- 1) c_13 id ) (* (- 1) c_9 ) ) 0) (>= (* 1 id ) 0) (>= (+ (* (- 1) 1) (* (- 1) id ) (* 1 maxId ) ) 0) (>= (+ (* 1 c_5 ) (* (- 1) maxId ) ) 0) (>= (+ (* (- 1) c_5 ) (* 1 maxId ) ) 0) (>= (+ (* 1 c_6 ) (* (- 1) tmp ) ) 0) (>= (+ (* (- 1) c_6 ) (* 1 tmp ) ) 0) (>= (+ (* (- 1) _tmp_ ) (* 1 c_7 ) ) 0) (>= (+ (* 1 _tmp_ ) (* (- 1) c_7 ) ) 0) (>= (+ (* 1 c_8 ) (* (- 1) id ) ) 0) (>= (+ (* (- 1) c_8 ) (* 1 id ) ) 0) ) (>= (+ (* 1 _tmp_ c_25 ) (* 1 c_24 ) (* 1 c_26 id ) (* 1 c_27 maxId ) (* 1 c_28 ) (* 1 c_28 id ) ) 0) )))
(assert (forall ((maxId Real) (tmp Real) (_tmp_ Real) (id Real) (_r_0 Real) ) (=> (and (>= (+ (* (- 1) 1) (* (- 1) _tmp_ c_15 ) (* (- 1) c_14 ) (* (- 1) c_16 id ) (* (- 1) c_17 maxId ) (* (- 1) c_18 ) (* (- 1) c_18 id ) ) 0) (>= (* 1 id ) 0) (>= (+ (* (- 1) 1) (* (- 1) id ) (* 1 maxId ) ) 0) (>= (+ (* 1 c_5 ) (* (- 1) maxId ) ) 0) (>= (+ (* (- 1) c_5 ) (* 1 maxId ) ) 0) (>= (+ (* 1 c_6 ) (* (- 1) tmp ) ) 0) (>= (+ (* (- 1) c_6 ) (* 1 tmp ) ) 0) (>= (+ (* (- 1) _tmp_ ) (* 1 c_7 ) ) 0) (>= (+ (* 1 _tmp_ ) (* (- 1) c_7 ) ) 0) (>= (+ (* 1 c_8 ) (* (- 1) id ) ) 0) (>= (+ (* (- 1) c_8 ) (* 1 id ) ) 0) ) (>= (+ (* 1 _tmp_ c_20 ) (* 1 c_19 ) (* 1 c_21 id ) (* 1 c_22 maxId ) (* 1 c_23 ) (* 1 c_23 id ) ) 0) )))
(assert (forall ((maxId Real) (tmp Real) (_tmp_ Real) (id Real) (_r_0 Real) ) (=> (and (>= (+ (* (- 1) 1) (* (- 1) _tmp_ c_15 ) (* (- 1) c_14 ) (* (- 1) c_16 id ) (* (- 1) c_17 maxId ) (* (- 1) c_18 ) (* (- 1) c_18 id ) ) 0) (>= (* 1 id ) 0) (>= (+ (* (- 1) 1) (* (- 1) id ) (* 1 maxId ) ) 0) (>= (+ (* 1 c_5 ) (* (- 1) maxId ) ) 0) (>= (+ (* (- 1) c_5 ) (* 1 maxId ) ) 0) (>= (+ (* 1 c_6 ) (* (- 1) tmp ) ) 0) (>= (+ (* (- 1) c_6 ) (* 1 tmp ) ) 0) (>= (+ (* (- 1) _tmp_ ) (* 1 c_7 ) ) 0) (>= (+ (* 1 _tmp_ ) (* (- 1) c_7 ) ) 0) (>= (+ (* 1 c_8 ) (* (- 1) id ) ) 0) (>= (+ (* (- 1) c_8 ) (* 1 id ) ) 0) ) (>= (+ (* 1 _tmp_ c_25 ) (* 1 c_24 ) (* 1 c_26 id ) (* 1 c_27 maxId ) (* 1 c_28 ) (* 1 c_28 id ) ) 0) )))
(assert (forall ((maxId Real) (tmp Real) (_tmp_ Real) (id Real) (_r_0 Real) ) (=> (and (>= (+ (* (- 1) 1) (* (- 1) id ) ) 0) (>= (+ (* 1 c_5 ) (* (- 1) maxId ) ) 0) (>= (+ (* (- 1) c_5 ) (* 1 maxId ) ) 0) (>= (+ (* 1 c_6 ) (* (- 1) tmp ) ) 0) (>= (+ (* (- 1) c_6 ) (* 1 tmp ) ) 0) (>= (+ (* (- 1) _tmp_ ) (* 1 c_7 ) ) 0) (>= (+ (* 1 _tmp_ ) (* (- 1) c_7 ) ) 0) (>= (+ (* 1 c_8 ) (* (- 1) id ) ) 0) (>= (+ (* (- 1) c_8 ) (* 1 id ) ) 0) ) (>= (* 1 c_4 ) 0) )))
(assert (forall ((maxId Real) (tmp Real) (_tmp_ Real) (id Real) (_r_0 Real) ) (=> (and (>= (+ (* 1 id ) (* (- 1) maxId ) ) 0) (>= (+ (* 1 c_5 ) (* (- 1) maxId ) ) 0) (>= (+ (* (- 1) c_5 ) (* 1 maxId ) ) 0) (>= (+ (* 1 c_6 ) (* (- 1) tmp ) ) 0) (>= (+ (* (- 1) c_6 ) (* 1 tmp ) ) 0) (>= (+ (* (- 1) _tmp_ ) (* 1 c_7 ) ) 0) (>= (+ (* 1 _tmp_ ) (* (- 1) c_7 ) ) 0) (>= (+ (* 1 c_8 ) (* (- 1) id ) ) 0) (>= (+ (* (- 1) c_8 ) (* 1 id ) ) 0) ) (>= (* 1 c_4 ) 0) )))
(assert (forall ((maxId Real) (tmp Real) (_tmp_ Real) (id Real) (_r_0 Real) ) (=> (and (>= (+ (* (- 1) 1) (* (- 1) _tmp_ c_10 ) (* (- 1) c_11 id ) (* (- 1) c_12 maxId ) (* (- 1) c_13 ) (* (- 1) c_13 tmp ) (* (- 1) c_9 ) ) 0) (>= (+ (* 1 maxId ) (* (- 1) tmp ) ) 0) (>= (+ (* (- 1) 1) (* 1 id ) (* (- 1) tmp ) ) 0) (>= (+ (* 1 _tmp_ c_10 ) (* 1 c_11 id ) (* 1 c_12 maxId ) (* 1 c_13 tmp ) (* 1 c_9 ) ) 0) (>= (+ (* 1 _tmp_ c_15 ) (* 1 c_14 ) (* 1 c_16 id ) (* 1 c_17 maxId ) (* 1 c_18 tmp ) ) 0) ) (>= (+ (* 1 _tmp_ c_20 ) (* 1 c_19 ) (* 1 c_21 id ) (* 1 c_22 maxId ) (* 1 c_23 ) (* 1 c_23 tmp ) ) 0) )))
(assert (forall ((maxId Real) (tmp Real) (_tmp_ Real) (id Real) (_r_0 Real) ) (=> (and (>= (+ (* (- 1) 1) (* (- 1) _tmp_ c_10 ) (* (- 1) c_11 id ) (* (- 1) c_12 maxId ) (* (- 1) c_13 ) (* (- 1) c_13 tmp ) (* (- 1) c_9 ) ) 0) (>= (+ (* 1 maxId ) (* (- 1) tmp ) ) 0) (>= (+ (* (- 1) 1) (* 1 id ) (* (- 1) tmp ) ) 0) (>= (+ (* 1 _tmp_ c_10 ) (* 1 c_11 id ) (* 1 c_12 maxId ) (* 1 c_13 tmp ) (* 1 c_9 ) ) 0) (>= (+ (* 1 _tmp_ c_15 ) (* 1 c_14 ) (* 1 c_16 id ) (* 1 c_17 maxId ) (* 1 c_18 tmp ) ) 0) ) (>= (+ (* 1 _tmp_ c_25 ) (* 1 c_24 ) (* 1 c_26 id ) (* 1 c_27 maxId ) (* 1 c_28 ) (* 1 c_28 tmp ) ) 0) )))
(assert (forall ((maxId Real) (tmp Real) (_tmp_ Real) (id Real) (_r_0 Real) ) (=> (and (>= (+ (* (- 1) 1) (* (- 1) _tmp_ c_15 ) (* (- 1) c_14 ) (* (- 1) c_16 id ) (* (- 1) c_17 maxId ) (* (- 1) c_18 ) (* (- 1) c_18 tmp ) ) 0) (>= (+ (* 1 maxId ) (* (- 1) tmp ) ) 0) (>= (+ (* (- 1) 1) (* 1 id ) (* (- 1) tmp ) ) 0) (>= (+ (* 1 _tmp_ c_10 ) (* 1 c_11 id ) (* 1 c_12 maxId ) (* 1 c_13 tmp ) (* 1 c_9 ) ) 0) (>= (+ (* 1 _tmp_ c_15 ) (* 1 c_14 ) (* 1 c_16 id ) (* 1 c_17 maxId ) (* 1 c_18 tmp ) ) 0) ) (>= (+ (* 1 _tmp_ c_20 ) (* 1 c_19 ) (* 1 c_21 id ) (* 1 c_22 maxId ) (* 1 c_23 ) (* 1 c_23 tmp ) ) 0) )))
(assert (forall ((maxId Real) (tmp Real) (_tmp_ Real) (id Real) (_r_0 Real) ) (=> (and (>= (+ (* (- 1) 1) (* (- 1) _tmp_ c_15 ) (* (- 1) c_14 ) (* (- 1) c_16 id ) (* (- 1) c_17 maxId ) (* (- 1) c_18 ) (* (- 1) c_18 tmp ) ) 0) (>= (+ (* 1 maxId ) (* (- 1) tmp ) ) 0) (>= (+ (* (- 1) 1) (* 1 id ) (* (- 1) tmp ) ) 0) (>= (+ (* 1 _tmp_ c_10 ) (* 1 c_11 id ) (* 1 c_12 maxId ) (* 1 c_13 tmp ) (* 1 c_9 ) ) 0) (>= (+ (* 1 _tmp_ c_15 ) (* 1 c_14 ) (* 1 c_16 id ) (* 1 c_17 maxId ) (* 1 c_18 tmp ) ) 0) ) (>= (+ (* 1 _tmp_ c_25 ) (* 1 c_24 ) (* 1 c_26 id ) (* 1 c_27 maxId ) (* 1 c_28 ) (* 1 c_28 tmp ) ) 0) )))
(assert (forall ((maxId Real) (tmp Real) (_tmp_ Real) (id Real) (_r_0 Real) ) (=> (and (>= (+ (* (- 1) 1) (* (- 1) _tmp_ c_10 ) (* (- 1) c_11 id ) (* (- 1) c_12 maxId ) (* (- 1) c_13 ) (* (- 1) c_13 tmp ) (* (- 1) c_9 ) ) 0) (>= (+ (* 1 maxId ) (* (- 1) tmp ) ) 0) (>= (+ (* (- 1) 1) (* 1 id ) (* (- 1) tmp ) ) 0) (>= (+ (* 1 _tmp_ c_20 ) (* 1 c_19 ) (* 1 c_21 id ) (* 1 c_22 maxId ) (* 1 c_23 tmp ) ) 0) (>= (+ (* 1 _tmp_ c_25 ) (* 1 c_24 ) (* 1 c_26 id ) (* 1 c_27 maxId ) (* 1 c_28 tmp ) ) 0) ) (>= (+ (* 1 _tmp_ c_20 ) (* 1 c_19 ) (* 1 c_21 id ) (* 1 c_22 maxId ) (* 1 c_23 ) (* 1 c_23 tmp ) ) 0) )))
(assert (forall ((maxId Real) (tmp Real) (_tmp_ Real) (id Real) (_r_0 Real) ) (=> (and (>= (+ (* (- 1) 1) (* (- 1) _tmp_ c_10 ) (* (- 1) c_11 id ) (* (- 1) c_12 maxId ) (* (- 1) c_13 ) (* (- 1) c_13 tmp ) (* (- 1) c_9 ) ) 0) (>= (+ (* 1 maxId ) (* (- 1) tmp ) ) 0) (>= (+ (* (- 1) 1) (* 1 id ) (* (- 1) tmp ) ) 0) (>= (+ (* 1 _tmp_ c_20 ) (* 1 c_19 ) (* 1 c_21 id ) (* 1 c_22 maxId ) (* 1 c_23 tmp ) ) 0) (>= (+ (* 1 _tmp_ c_25 ) (* 1 c_24 ) (* 1 c_26 id ) (* 1 c_27 maxId ) (* 1 c_28 tmp ) ) 0) ) (>= (+ (* 1 _tmp_ c_25 ) (* 1 c_24 ) (* 1 c_26 id ) (* 1 c_27 maxId ) (* 1 c_28 ) (* 1 c_28 tmp ) ) 0) )))
(assert (forall ((maxId Real) (tmp Real) (_tmp_ Real) (id Real) (_r_0 Real) ) (=> (and (>= (+ (* (- 1) 1) (* (- 1) _tmp_ c_15 ) (* (- 1) c_14 ) (* (- 1) c_16 id ) (* (- 1) c_17 maxId ) (* (- 1) c_18 ) (* (- 1) c_18 tmp ) ) 0) (>= (+ (* 1 maxId ) (* (- 1) tmp ) ) 0) (>= (+ (* (- 1) 1) (* 1 id ) (* (- 1) tmp ) ) 0) (>= (+ (* 1 _tmp_ c_20 ) (* 1 c_19 ) (* 1 c_21 id ) (* 1 c_22 maxId ) (* 1 c_23 tmp ) ) 0) (>= (+ (* 1 _tmp_ c_25 ) (* 1 c_24 ) (* 1 c_26 id ) (* 1 c_27 maxId ) (* 1 c_28 tmp ) ) 0) ) (>= (+ (* 1 _tmp_ c_20 ) (* 1 c_19 ) (* 1 c_21 id ) (* 1 c_22 maxId ) (* 1 c_23 ) (* 1 c_23 tmp ) ) 0) )))
(assert (forall ((maxId Real) (tmp Real) (_tmp_ Real) (id Real) (_r_0 Real) ) (=> (and (>= (+ (* (- 1) 1) (* (- 1) _tmp_ c_15 ) (* (- 1) c_14 ) (* (- 1) c_16 id ) (* (- 1) c_17 maxId ) (* (- 1) c_18 ) (* (- 1) c_18 tmp ) ) 0) (>= (+ (* 1 maxId ) (* (- 1) tmp ) ) 0) (>= (+ (* (- 1) 1) (* 1 id ) (* (- 1) tmp ) ) 0) (>= (+ (* 1 _tmp_ c_20 ) (* 1 c_19 ) (* 1 c_21 id ) (* 1 c_22 maxId ) (* 1 c_23 tmp ) ) 0) (>= (+ (* 1 _tmp_ c_25 ) (* 1 c_24 ) (* 1 c_26 id ) (* 1 c_27 maxId ) (* 1 c_28 tmp ) ) 0) ) (>= (+ (* 1 _tmp_ c_25 ) (* 1 c_24 ) (* 1 c_26 id ) (* 1 c_27 maxId ) (* 1 c_28 ) (* 1 c_28 tmp ) ) 0) )))
(assert (forall ((maxId Real) (tmp Real) (_tmp_ Real) (id Real) (_r_0 Real) ) (=> (and (>= (+ (* (- 1) 1) (* (- 1) _tmp_ c_10 ) (* (- 1) c_11 id ) (* (- 1) c_12 maxId ) (* (- 1) c_9 ) ) 0) (>= (+ (* (- 1) 1) (* (- 1) maxId ) (* 1 tmp ) ) 0) (>= (+ (* (- 1) 1) (* 1 id ) (* (- 1) tmp ) ) 0) (>= (+ (* 1 _tmp_ c_10 ) (* 1 c_11 id ) (* 1 c_12 maxId ) (* 1 c_13 tmp ) (* 1 c_9 ) ) 0) (>= (+ (* 1 _tmp_ c_15 ) (* 1 c_14 ) (* 1 c_16 id ) (* 1 c_17 maxId ) (* 1 c_18 tmp ) ) 0) ) (>= (+ (* 1 _tmp_ c_20 ) (* 1 c_19 ) (* 1 c_21 id ) (* 1 c_22 maxId ) ) 0) )))
(assert (forall ((maxId Real) (tmp Real) (_tmp_ Real) (id Real) (_r_0 Real) ) (=> (and (>= (+ (* (- 1) 1) (* (- 1) _tmp_ c_10 ) (* (- 1) c_11 id ) (* (- 1) c_12 maxId ) (* (- 1) c_9 ) ) 0) (>= (+ (* (- 1) 1) (* (- 1) maxId ) (* 1 tmp ) ) 0) (>= (+ (* (- 1) 1) (* 1 id ) (* (- 1) tmp ) ) 0) (>= (+ (* 1 _tmp_ c_10 ) (* 1 c_11 id ) (* 1 c_12 maxId ) (* 1 c_13 tmp ) (* 1 c_9 ) ) 0) (>= (+ (* 1 _tmp_ c_15 ) (* 1 c_14 ) (* 1 c_16 id ) (* 1 c_17 maxId ) (* 1 c_18 tmp ) ) 0) ) (>= (+ (* 1 _tmp_ c_25 ) (* 1 c_24 ) (* 1 c_26 id ) (* 1 c_27 maxId ) ) 0) )))
(assert (forall ((maxId Real) (tmp Real) (_tmp_ Real) (id Real) (_r_0 Real) ) (=> (and (>= (+ (* (- 1) 1) (* (- 1) _tmp_ c_15 ) (* (- 1) c_14 ) (* (- 1) c_16 id ) (* (- 1) c_17 maxId ) ) 0) (>= (+ (* (- 1) 1) (* (- 1) maxId ) (* 1 tmp ) ) 0) (>= (+ (* (- 1) 1) (* 1 id ) (* (- 1) tmp ) ) 0) (>= (+ (* 1 _tmp_ c_10 ) (* 1 c_11 id ) (* 1 c_12 maxId ) (* 1 c_13 tmp ) (* 1 c_9 ) ) 0) (>= (+ (* 1 _tmp_ c_15 ) (* 1 c_14 ) (* 1 c_16 id ) (* 1 c_17 maxId ) (* 1 c_18 tmp ) ) 0) ) (>= (+ (* 1 _tmp_ c_20 ) (* 1 c_19 ) (* 1 c_21 id ) (* 1 c_22 maxId ) ) 0) )))
(assert (forall ((maxId Real) (tmp Real) (_tmp_ Real) (id Real) (_r_0 Real) ) (=> (and (>= (+ (* (- 1) 1) (* (- 1) _tmp_ c_15 ) (* (- 1) c_14 ) (* (- 1) c_16 id ) (* (- 1) c_17 maxId ) ) 0) (>= (+ (* (- 1) 1) (* (- 1) maxId ) (* 1 tmp ) ) 0) (>= (+ (* (- 1) 1) (* 1 id ) (* (- 1) tmp ) ) 0) (>= (+ (* 1 _tmp_ c_10 ) (* 1 c_11 id ) (* 1 c_12 maxId ) (* 1 c_13 tmp ) (* 1 c_9 ) ) 0) (>= (+ (* 1 _tmp_ c_15 ) (* 1 c_14 ) (* 1 c_16 id ) (* 1 c_17 maxId ) (* 1 c_18 tmp ) ) 0) ) (>= (+ (* 1 _tmp_ c_25 ) (* 1 c_24 ) (* 1 c_26 id ) (* 1 c_27 maxId ) ) 0) )))
(assert (forall ((maxId Real) (tmp Real) (_tmp_ Real) (id Real) (_r_0 Real) ) (=> (and (>= (+ (* (- 1) 1) (* (- 1) _tmp_ c_10 ) (* (- 1) c_11 id ) (* (- 1) c_12 maxId ) (* (- 1) c_9 ) ) 0) (>= (+ (* (- 1) 1) (* (- 1) maxId ) (* 1 tmp ) ) 0) (>= (+ (* (- 1) 1) (* 1 id ) (* (- 1) tmp ) ) 0) (>= (+ (* 1 _tmp_ c_20 ) (* 1 c_19 ) (* 1 c_21 id ) (* 1 c_22 maxId ) (* 1 c_23 tmp ) ) 0) (>= (+ (* 1 _tmp_ c_25 ) (* 1 c_24 ) (* 1 c_26 id ) (* 1 c_27 maxId ) (* 1 c_28 tmp ) ) 0) ) (>= (+ (* 1 _tmp_ c_20 ) (* 1 c_19 ) (* 1 c_21 id ) (* 1 c_22 maxId ) ) 0) )))
(assert (forall ((maxId Real) (tmp Real) (_tmp_ Real) (id Real) (_r_0 Real) ) (=> (and (>= (+ (* (- 1) 1) (* (- 1) _tmp_ c_10 ) (* (- 1) c_11 id ) (* (- 1) c_12 maxId ) (* (- 1) c_9 ) ) 0) (>= (+ (* (- 1) 1) (* (- 1) maxId ) (* 1 tmp ) ) 0) (>= (+ (* (- 1) 1) (* 1 id ) (* (- 1) tmp ) ) 0) (>= (+ (* 1 _tmp_ c_20 ) (* 1 c_19 ) (* 1 c_21 id ) (* 1 c_22 maxId ) (* 1 c_23 tmp ) ) 0) (>= (+ (* 1 _tmp_ c_25 ) (* 1 c_24 ) (* 1 c_26 id ) (* 1 c_27 maxId ) (* 1 c_28 tmp ) ) 0) ) (>= (+ (* 1 _tmp_ c_25 ) (* 1 c_24 ) (* 1 c_26 id ) (* 1 c_27 maxId ) ) 0) )))
(assert (forall ((maxId Real) (tmp Real) (_tmp_ Real) (id Real) (_r_0 Real) ) (=> (and (>= (+ (* (- 1) 1) (* (- 1) _tmp_ c_15 ) (* (- 1) c_14 ) (* (- 1) c_16 id ) (* (- 1) c_17 maxId ) ) 0) (>= (+ (* (- 1) 1) (* (- 1) maxId ) (* 1 tmp ) ) 0) (>= (+ (* (- 1) 1) (* 1 id ) (* (- 1) tmp ) ) 0) (>= (+ (* 1 _tmp_ c_20 ) (* 1 c_19 ) (* 1 c_21 id ) (* 1 c_22 maxId ) (* 1 c_23 tmp ) ) 0) (>= (+ (* 1 _tmp_ c_25 ) (* 1 c_24 ) (* 1 c_26 id ) (* 1 c_27 maxId ) (* 1 c_28 tmp ) ) 0) ) (>= (+ (* 1 _tmp_ c_20 ) (* 1 c_19 ) (* 1 c_21 id ) (* 1 c_22 maxId ) ) 0) )))
(assert (forall ((maxId Real) (tmp Real) (_tmp_ Real) (id Real) (_r_0 Real) ) (=> (and (>= (+ (* (- 1) 1) (* (- 1) _tmp_ c_15 ) (* (- 1) c_14 ) (* (- 1) c_16 id ) (* (- 1) c_17 maxId ) ) 0) (>= (+ (* (- 1) 1) (* (- 1) maxId ) (* 1 tmp ) ) 0) (>= (+ (* (- 1) 1) (* 1 id ) (* (- 1) tmp ) ) 0) (>= (+ (* 1 _tmp_ c_20 ) (* 1 c_19 ) (* 1 c_21 id ) (* 1 c_22 maxId ) (* 1 c_23 tmp ) ) 0) (>= (+ (* 1 _tmp_ c_25 ) (* 1 c_24 ) (* 1 c_26 id ) (* 1 c_27 maxId ) (* 1 c_28 tmp ) ) 0) ) (>= (+ (* 1 _tmp_ c_25 ) (* 1 c_24 ) (* 1 c_26 id ) (* 1 c_27 maxId ) ) 0) )))
(assert (forall ((maxId Real) (tmp Real) (_tmp_ Real) (id Real) (_r_0 Real) ) (=> (and (>= (+ (* (- 1) 1) (* (- 1) _tmp_ c_10 ) (* (- 1) c_11 id ) (* (- 1) c_12 maxId ) (* (- 1) c_13 ) (* (- 1) c_13 tmp ) (* (- 1) c_9 ) ) 0) (>= (+ (* 1 maxId ) (* (- 1) tmp ) ) 0) (>= (+ (* (- 1) 1) (* (- 1) id ) (* 1 tmp ) ) 0) (>= (+ (* 1 _tmp_ c_10 ) (* 1 c_11 id ) (* 1 c_12 maxId ) (* 1 c_13 tmp ) (* 1 c_9 ) ) 0) (>= (+ (* 1 _tmp_ c_15 ) (* 1 c_14 ) (* 1 c_16 id ) (* 1 c_17 maxId ) (* 1 c_18 tmp ) ) 0) ) (>= (+ (* 1 _tmp_ c_20 ) (* 1 c_19 ) (* 1 c_21 id ) (* 1 c_22 maxId ) (* 1 c_23 ) (* 1 c_23 tmp ) ) 0) )))
(assert (forall ((maxId Real) (tmp Real) (_tmp_ Real) (id Real) (_r_0 Real) ) (=> (and (>= (+ (* (- 1) 1) (* (- 1) _tmp_ c_10 ) (* (- 1) c_11 id ) (* (- 1) c_12 maxId ) (* (- 1) c_13 ) (* (- 1) c_13 tmp ) (* (- 1) c_9 ) ) 0) (>= (+ (* 1 maxId ) (* (- 1) tmp ) ) 0) (>= (+ (* (- 1) 1) (* (- 1) id ) (* 1 tmp ) ) 0) (>= (+ (* 1 _tmp_ c_10 ) (* 1 c_11 id ) (* 1 c_12 maxId ) (* 1 c_13 tmp ) (* 1 c_9 ) ) 0) (>= (+ (* 1 _tmp_ c_15 ) (* 1 c_14 ) (* 1 c_16 id ) (* 1 c_17 maxId ) (* 1 c_18 tmp ) ) 0) ) (>= (+ (* 1 _tmp_ c_25 ) (* 1 c_24 ) (* 1 c_26 id ) (* 1 c_27 maxId ) (* 1 c_28 ) (* 1 c_28 tmp ) ) 0) )))
(assert (forall ((maxId Real) (tmp Real) (_tmp_ Real) (id Real) (_r_0 Real) ) (=> (and (>= (+ (* (- 1) 1) (* (- 1) _tmp_ c_15 ) (* (- 1) c_14 ) (* (- 1) c_16 id ) (* (- 1) c_17 maxId ) (* (- 1) c_18 ) (* (- 1) c_18 tmp ) ) 0) (>= (+ (* 1 maxId ) (* (- 1) tmp ) ) 0) (>= (+ (* (- 1) 1) (* (- 1) id ) (* 1 tmp ) ) 0) (>= (+ (* 1 _tmp_ c_10 ) (* 1 c_11 id ) (* 1 c_12 maxId ) (* 1 c_13 tmp ) (* 1 c_9 ) ) 0) (>= (+ (* 1 _tmp_ c_15 ) (* 1 c_14 ) (* 1 c_16 id ) (* 1 c_17 maxId ) (* 1 c_18 tmp ) ) 0) ) (>= (+ (* 1 _tmp_ c_20 ) (* 1 c_19 ) (* 1 c_21 id ) (* 1 c_22 maxId ) (* 1 c_23 ) (* 1 c_23 tmp ) ) 0) )))
(assert (forall ((maxId Real) (tmp Real) (_tmp_ Real) (id Real) (_r_0 Real) ) (=> (and (>= (+ (* (- 1) 1) (* (- 1) _tmp_ c_15 ) (* (- 1) c_14 ) (* (- 1) c_16 id ) (* (- 1) c_17 maxId ) (* (- 1) c_18 ) (* (- 1) c_18 tmp ) ) 0) (>= (+ (* 1 maxId ) (* (- 1) tmp ) ) 0) (>= (+ (* (- 1) 1) (* (- 1) id ) (* 1 tmp ) ) 0) (>= (+ (* 1 _tmp_ c_10 ) (* 1 c_11 id ) (* 1 c_12 maxId ) (* 1 c_13 tmp ) (* 1 c_9 ) ) 0) (>= (+ (* 1 _tmp_ c_15 ) (* 1 c_14 ) (* 1 c_16 id ) (* 1 c_17 maxId ) (* 1 c_18 tmp ) ) 0) ) (>= (+ (* 1 _tmp_ c_25 ) (* 1 c_24 ) (* 1 c_26 id ) (* 1 c_27 maxId ) (* 1 c_28 ) (* 1 c_28 tmp ) ) 0) )))
(assert (forall ((maxId Real) (tmp Real) (_tmp_ Real) (id Real) (_r_0 Real) ) (=> (and (>= (+ (* (- 1) 1) (* (- 1) _tmp_ c_10 ) (* (- 1) c_11 id ) (* (- 1) c_12 maxId ) (* (- 1) c_13 ) (* (- 1) c_13 tmp ) (* (- 1) c_9 ) ) 0) (>= (+ (* 1 maxId ) (* (- 1) tmp ) ) 0) (>= (+ (* (- 1) 1) (* (- 1) id ) (* 1 tmp ) ) 0) (>= (+ (* 1 _tmp_ c_20 ) (* 1 c_19 ) (* 1 c_21 id ) (* 1 c_22 maxId ) (* 1 c_23 tmp ) ) 0) (>= (+ (* 1 _tmp_ c_25 ) (* 1 c_24 ) (* 1 c_26 id ) (* 1 c_27 maxId ) (* 1 c_28 tmp ) ) 0) ) (>= (+ (* 1 _tmp_ c_20 ) (* 1 c_19 ) (* 1 c_21 id ) (* 1 c_22 maxId ) (* 1 c_23 ) (* 1 c_23 tmp ) ) 0) )))
(assert (forall ((maxId Real) (tmp Real) (_tmp_ Real) (id Real) (_r_0 Real) ) (=> (and (>= (+ (* (- 1) 1) (* (- 1) _tmp_ c_10 ) (* (- 1) c_11 id ) (* (- 1) c_12 maxId ) (* (- 1) c_13 ) (* (- 1) c_13 tmp ) (* (- 1) c_9 ) ) 0) (>= (+ (* 1 maxId ) (* (- 1) tmp ) ) 0) (>= (+ (* (- 1) 1) (* (- 1) id ) (* 1 tmp ) ) 0) (>= (+ (* 1 _tmp_ c_20 ) (* 1 c_19 ) (* 1 c_21 id ) (* 1 c_22 maxId ) (* 1 c_23 tmp ) ) 0) (>= (+ (* 1 _tmp_ c_25 ) (* 1 c_24 ) (* 1 c_26 id ) (* 1 c_27 maxId ) (* 1 c_28 tmp ) ) 0) ) (>= (+ (* 1 _tmp_ c_25 ) (* 1 c_24 ) (* 1 c_26 id ) (* 1 c_27 maxId ) (* 1 c_28 ) (* 1 c_28 tmp ) ) 0) )))
(assert (forall ((maxId Real) (tmp Real) (_tmp_ Real) (id Real) (_r_0 Real) ) (=> (and (>= (+ (* (- 1) 1) (* (- 1) _tmp_ c_15 ) (* (- 1) c_14 ) (* (- 1) c_16 id ) (* (- 1) c_17 maxId ) (* (- 1) c_18 ) (* (- 1) c_18 tmp ) ) 0) (>= (+ (* 1 maxId ) (* (- 1) tmp ) ) 0) (>= (+ (* (- 1) 1) (* (- 1) id ) (* 1 tmp ) ) 0) (>= (+ (* 1 _tmp_ c_20 ) (* 1 c_19 ) (* 1 c_21 id ) (* 1 c_22 maxId ) (* 1 c_23 tmp ) ) 0) (>= (+ (* 1 _tmp_ c_25 ) (* 1 c_24 ) (* 1 c_26 id ) (* 1 c_27 maxId ) (* 1 c_28 tmp ) ) 0) ) (>= (+ (* 1 _tmp_ c_20 ) (* 1 c_19 ) (* 1 c_21 id ) (* 1 c_22 maxId ) (* 1 c_23 ) (* 1 c_23 tmp ) ) 0) )))
(assert (forall ((maxId Real) (tmp Real) (_tmp_ Real) (id Real) (_r_0 Real) ) (=> (and (>= (+ (* (- 1) 1) (* (- 1) _tmp_ c_15 ) (* (- 1) c_14 ) (* (- 1) c_16 id ) (* (- 1) c_17 maxId ) (* (- 1) c_18 ) (* (- 1) c_18 tmp ) ) 0) (>= (+ (* 1 maxId ) (* (- 1) tmp ) ) 0) (>= (+ (* (- 1) 1) (* (- 1) id ) (* 1 tmp ) ) 0) (>= (+ (* 1 _tmp_ c_20 ) (* 1 c_19 ) (* 1 c_21 id ) (* 1 c_22 maxId ) (* 1 c_23 tmp ) ) 0) (>= (+ (* 1 _tmp_ c_25 ) (* 1 c_24 ) (* 1 c_26 id ) (* 1 c_27 maxId ) (* 1 c_28 tmp ) ) 0) ) (>= (+ (* 1 _tmp_ c_25 ) (* 1 c_24 ) (* 1 c_26 id ) (* 1 c_27 maxId ) (* 1 c_28 ) (* 1 c_28 tmp ) ) 0) )))
(assert (forall ((maxId Real) (tmp Real) (_tmp_ Real) (id Real) (_r_0 Real) ) (=> (and (>= (+ (* (- 1) 1) (* (- 1) _tmp_ c_10 ) (* (- 1) c_11 id ) (* (- 1) c_12 maxId ) (* (- 1) c_9 ) ) 0) (>= (+ (* (- 1) 1) (* (- 1) maxId ) (* 1 tmp ) ) 0) (>= (+ (* (- 1) 1) (* (- 1) id ) (* 1 tmp ) ) 0) (>= (+ (* 1 _tmp_ c_10 ) (* 1 c_11 id ) (* 1 c_12 maxId ) (* 1 c_13 tmp ) (* 1 c_9 ) ) 0) (>= (+ (* 1 _tmp_ c_15 ) (* 1 c_14 ) (* 1 c_16 id ) (* 1 c_17 maxId ) (* 1 c_18 tmp ) ) 0) ) (>= (+ (* 1 _tmp_ c_20 ) (* 1 c_19 ) (* 1 c_21 id ) (* 1 c_22 maxId ) ) 0) )))
(assert (forall ((maxId Real) (tmp Real) (_tmp_ Real) (id Real) (_r_0 Real) ) (=> (and (>= (+ (* (- 1) 1) (* (- 1) _tmp_ c_10 ) (* (- 1) c_11 id ) (* (- 1) c_12 maxId ) (* (- 1) c_9 ) ) 0) (>= (+ (* (- 1) 1) (* (- 1) maxId ) (* 1 tmp ) ) 0) (>= (+ (* (- 1) 1) (* (- 1) id ) (* 1 tmp ) ) 0) (>= (+ (* 1 _tmp_ c_10 ) (* 1 c_11 id ) (* 1 c_12 maxId ) (* 1 c_13 tmp ) (* 1 c_9 ) ) 0) (>= (+ (* 1 _tmp_ c_15 ) (* 1 c_14 ) (* 1 c_16 id ) (* 1 c_17 maxId ) (* 1 c_18 tmp ) ) 0) ) (>= (+ (* 1 _tmp_ c_25 ) (* 1 c_24 ) (* 1 c_26 id ) (* 1 c_27 maxId ) ) 0) )))
(assert (forall ((maxId Real) (tmp Real) (_tmp_ Real) (id Real) (_r_0 Real) ) (=> (and (>= (+ (* (- 1) 1) (* (- 1) _tmp_ c_15 ) (* (- 1) c_14 ) (* (- 1) c_16 id ) (* (- 1) c_17 maxId ) ) 0) (>= (+ (* (- 1) 1) (* (- 1) maxId ) (* 1 tmp ) ) 0) (>= (+ (* (- 1) 1) (* (- 1) id ) (* 1 tmp ) ) 0) (>= (+ (* 1 _tmp_ c_10 ) (* 1 c_11 id ) (* 1 c_12 maxId ) (* 1 c_13 tmp ) (* 1 c_9 ) ) 0) (>= (+ (* 1 _tmp_ c_15 ) (* 1 c_14 ) (* 1 c_16 id ) (* 1 c_17 maxId ) (* 1 c_18 tmp ) ) 0) ) (>= (+ (* 1 _tmp_ c_20 ) (* 1 c_19 ) (* 1 c_21 id ) (* 1 c_22 maxId ) ) 0) )))
(assert (forall ((maxId Real) (tmp Real) (_tmp_ Real) (id Real) (_r_0 Real) ) (=> (and (>= (+ (* (- 1) 1) (* (- 1) _tmp_ c_15 ) (* (- 1) c_14 ) (* (- 1) c_16 id ) (* (- 1) c_17 maxId ) ) 0) (>= (+ (* (- 1) 1) (* (- 1) maxId ) (* 1 tmp ) ) 0) (>= (+ (* (- 1) 1) (* (- 1) id ) (* 1 tmp ) ) 0) (>= (+ (* 1 _tmp_ c_10 ) (* 1 c_11 id ) (* 1 c_12 maxId ) (* 1 c_13 tmp ) (* 1 c_9 ) ) 0) (>= (+ (* 1 _tmp_ c_15 ) (* 1 c_14 ) (* 1 c_16 id ) (* 1 c_17 maxId ) (* 1 c_18 tmp ) ) 0) ) (>= (+ (* 1 _tmp_ c_25 ) (* 1 c_24 ) (* 1 c_26 id ) (* 1 c_27 maxId ) ) 0) )))
(assert (forall ((maxId Real) (tmp Real) (_tmp_ Real) (id Real) (_r_0 Real) ) (=> (and (>= (+ (* (- 1) 1) (* (- 1) _tmp_ c_10 ) (* (- 1) c_11 id ) (* (- 1) c_12 maxId ) (* (- 1) c_9 ) ) 0) (>= (+ (* (- 1) 1) (* (- 1) maxId ) (* 1 tmp ) ) 0) (>= (+ (* (- 1) 1) (* (- 1) id ) (* 1 tmp ) ) 0) (>= (+ (* 1 _tmp_ c_20 ) (* 1 c_19 ) (* 1 c_21 id ) (* 1 c_22 maxId ) (* 1 c_23 tmp ) ) 0) (>= (+ (* 1 _tmp_ c_25 ) (* 1 c_24 ) (* 1 c_26 id ) (* 1 c_27 maxId ) (* 1 c_28 tmp ) ) 0) ) (>= (+ (* 1 _tmp_ c_20 ) (* 1 c_19 ) (* 1 c_21 id ) (* 1 c_22 maxId ) ) 0) )))
(assert (forall ((maxId Real) (tmp Real) (_tmp_ Real) (id Real) (_r_0 Real) ) (=> (and (>= (+ (* (- 1) 1) (* (- 1) _tmp_ c_10 ) (* (- 1) c_11 id ) (* (- 1) c_12 maxId ) (* (- 1) c_9 ) ) 0) (>= (+ (* (- 1) 1) (* (- 1) maxId ) (* 1 tmp ) ) 0) (>= (+ (* (- 1) 1) (* (- 1) id ) (* 1 tmp ) ) 0) (>= (+ (* 1 _tmp_ c_20 ) (* 1 c_19 ) (* 1 c_21 id ) (* 1 c_22 maxId ) (* 1 c_23 tmp ) ) 0) (>= (+ (* 1 _tmp_ c_25 ) (* 1 c_24 ) (* 1 c_26 id ) (* 1 c_27 maxId ) (* 1 c_28 tmp ) ) 0) ) (>= (+ (* 1 _tmp_ c_25 ) (* 1 c_24 ) (* 1 c_26 id ) (* 1 c_27 maxId ) ) 0) )))
(assert (forall ((maxId Real) (tmp Real) (_tmp_ Real) (id Real) (_r_0 Real) ) (=> (and (>= (+ (* (- 1) 1) (* (- 1) _tmp_ c_15 ) (* (- 1) c_14 ) (* (- 1) c_16 id ) (* (- 1) c_17 maxId ) ) 0) (>= (+ (* (- 1) 1) (* (- 1) maxId ) (* 1 tmp ) ) 0) (>= (+ (* (- 1) 1) (* (- 1) id ) (* 1 tmp ) ) 0) (>= (+ (* 1 _tmp_ c_20 ) (* 1 c_19 ) (* 1 c_21 id ) (* 1 c_22 maxId ) (* 1 c_23 tmp ) ) 0) (>= (+ (* 1 _tmp_ c_25 ) (* 1 c_24 ) (* 1 c_26 id ) (* 1 c_27 maxId ) (* 1 c_28 tmp ) ) 0) ) (>= (+ (* 1 _tmp_ c_20 ) (* 1 c_19 ) (* 1 c_21 id ) (* 1 c_22 maxId ) ) 0) )))
(assert (forall ((maxId Real) (tmp Real) (_tmp_ Real) (id Real) (_r_0 Real) ) (=> (and (>= (+ (* (- 1) 1) (* (- 1) _tmp_ c_15 ) (* (- 1) c_14 ) (* (- 1) c_16 id ) (* (- 1) c_17 maxId ) ) 0) (>= (+ (* (- 1) 1) (* (- 1) maxId ) (* 1 tmp ) ) 0) (>= (+ (* (- 1) 1) (* (- 1) id ) (* 1 tmp ) ) 0) (>= (+ (* 1 _tmp_ c_20 ) (* 1 c_19 ) (* 1 c_21 id ) (* 1 c_22 maxId ) (* 1 c_23 tmp ) ) 0) (>= (+ (* 1 _tmp_ c_25 ) (* 1 c_24 ) (* 1 c_26 id ) (* 1 c_27 maxId ) (* 1 c_28 tmp ) ) 0) ) (>= (+ (* 1 _tmp_ c_25 ) (* 1 c_24 ) (* 1 c_26 id ) (* 1 c_27 maxId ) ) 0) )))
(assert (forall ((maxId Real) (tmp Real) (_tmp_ Real) (id Real) (_r_0 Real) ) (=> (and (>= (+ (* (- 1) id ) (* 1 tmp ) ) 0) (>= (+ (* 1 id ) (* (- 1) tmp ) ) 0) (>= (+ (* 1 _tmp_ c_10 ) (* 1 c_11 id ) (* 1 c_12 maxId ) (* 1 c_13 tmp ) (* 1 c_9 ) ) 0) (>= (+ (* 1 _tmp_ c_15 ) (* 1 c_14 ) (* 1 c_16 id ) (* 1 c_17 maxId ) (* 1 c_18 tmp ) ) 0) ) (>= (* 1 c_4 ) 0) )))
(assert (forall ((maxId Real) (tmp Real) (_tmp_ Real) (id Real) (_r_0 Real) ) (=> (and (>= (+ (* (- 1) id ) (* 1 tmp ) ) 0) (>= (+ (* 1 id ) (* (- 1) tmp ) ) 0) (>= (+ (* 1 _tmp_ c_20 ) (* 1 c_19 ) (* 1 c_21 id ) (* 1 c_22 maxId ) (* 1 c_23 tmp ) ) 0) (>= (+ (* 1 _tmp_ c_25 ) (* 1 c_24 ) (* 1 c_26 id ) (* 1 c_27 maxId ) (* 1 c_28 tmp ) ) 0) ) (>= (* 1 c_4 ) 0) )))
(assert (forall ((maxId Real) (tmp Real) (_tmp_ Real) (id Real) (_r_0 Real) ) (=> (and (>= (+ (* (- 1) id ) (* 1 tmp ) ) 0) (>= (+ (* 1 _tmp_ c_10 ) (* 1 c_11 id ) (* 1 c_12 maxId ) (* 1 c_13 tmp ) (* 1 c_9 ) ) 0) (>= (+ (* 1 _tmp_ c_15 ) (* 1 c_14 ) (* 1 c_16 id ) (* 1 c_17 maxId ) (* 1 c_18 tmp ) ) 0) ) (>= (* 1 c_4 ) 0) )))
(assert (forall ((maxId Real) (tmp Real) (_tmp_ Real) (id Real) (_r_0 Real) ) (=> (and (>= (+ (* (- 1) id ) (* 1 tmp ) ) 0) (>= (+ (* 1 _tmp_ c_20 ) (* 1 c_19 ) (* 1 c_21 id ) (* 1 c_22 maxId ) (* 1 c_23 tmp ) ) 0) (>= (+ (* 1 _tmp_ c_25 ) (* 1 c_24 ) (* 1 c_26 id ) (* 1 c_27 maxId ) (* 1 c_28 tmp ) ) 0) ) (>= (* 1 c_4 ) 0) )))
(assert (forall ((maxId Real) (tmp Real) (_tmp_ Real) (id Real) (_r_0 Real) ) (=> (and (>= (* (- 1) _r_0 ) 0) (>= (+ (* 1 _r_0 ) (* (- 1) _tmp_ c_2 ) (* (- 1) c_0 maxId ) (* (- 1) c_1 tmp ) (* (- 1) c_3 id ) ) 0) (>= (+ (* (- 1) _r_0 ) (* 1 _tmp_ c_2 ) (* 1 c_0 maxId ) (* 1 c_1 tmp ) (* 1 c_3 id ) ) 0) (>= (+ (* 1 _tmp_ c_10 ) (* 1 c_11 id ) (* 1 c_12 maxId ) (* 1 c_13 tmp ) (* 1 c_9 ) ) 0) (>= (+ (* 1 _tmp_ c_15 ) (* 1 c_14 ) (* 1 c_16 id ) (* 1 c_17 maxId ) (* 1 c_18 tmp ) ) 0) ) (>= (* 1 c_4 ) 0) )))
(assert (forall ((maxId Real) (tmp Real) (_tmp_ Real) (id Real) (_r_0 Real) ) (=> (and (>= (* (- 1) _r_0 ) 0) (>= (+ (* 1 _r_0 ) (* (- 1) _tmp_ c_2 ) (* (- 1) c_0 maxId ) (* (- 1) c_1 tmp ) (* (- 1) c_3 id ) ) 0) (>= (+ (* (- 1) _r_0 ) (* 1 _tmp_ c_2 ) (* 1 c_0 maxId ) (* 1 c_1 tmp ) (* 1 c_3 id ) ) 0) (>= (+ (* 1 _tmp_ c_20 ) (* 1 c_19 ) (* 1 c_21 id ) (* 1 c_22 maxId ) (* 1 c_23 tmp ) ) 0) (>= (+ (* 1 _tmp_ c_25 ) (* 1 c_24 ) (* 1 c_26 id ) (* 1 c_27 maxId ) (* 1 c_28 tmp ) ) 0) ) (>= (* 1 c_4 ) 0) )))
(assert (forall ((maxId Real) (tmp Real) (_tmp_ Real) (id Real) (_r_0 Real) ) (=> (and (>= (+ (* (- 1) 1) (* 1 _r_0 ) ) 0) (>= (+ (* 1 _r_0 ) (* (- 1) _tmp_ c_2 ) (* (- 1) c_0 maxId ) (* (- 1) c_1 tmp ) (* (- 1) c_3 id ) ) 0) (>= (+ (* (- 1) _r_0 ) (* 1 _tmp_ c_2 ) (* 1 c_0 maxId ) (* 1 c_1 tmp ) (* 1 c_3 id ) ) 0) (>= (+ (* 1 _tmp_ c_10 ) (* 1 c_11 id ) (* 1 c_12 maxId ) (* 1 c_13 tmp ) (* 1 c_9 ) ) 0) (>= (+ (* 1 _tmp_ c_15 ) (* 1 c_14 ) (* 1 c_16 id ) (* 1 c_17 maxId ) (* 1 c_18 tmp ) ) 0) ) (>= (* 1 c_4 ) 0) )))
(assert (forall ((maxId Real) (tmp Real) (_tmp_ Real) (id Real) (_r_0 Real) ) (=> (and (>= (+ (* (- 1) 1) (* 1 _r_0 ) ) 0) (>= (+ (* 1 _r_0 ) (* (- 1) _tmp_ c_2 ) (* (- 1) c_0 maxId ) (* (- 1) c_1 tmp ) (* (- 1) c_3 id ) ) 0) (>= (+ (* (- 1) _r_0 ) (* 1 _tmp_ c_2 ) (* 1 c_0 maxId ) (* 1 c_1 tmp ) (* 1 c_3 id ) ) 0) (>= (+ (* 1 _tmp_ c_20 ) (* 1 c_19 ) (* 1 c_21 id ) (* 1 c_22 maxId ) (* 1 c_23 tmp ) ) 0) (>= (+ (* 1 _tmp_ c_25 ) (* 1 c_24 ) (* 1 c_26 id ) (* 1 c_27 maxId ) (* 1 c_28 tmp ) ) 0) ) (>= (* 1 c_4 ) 0) )))
(check-sat)
(get-model)

